(set-info :smt-lib-version 2.6)
(set-logic QF_UFLRA)
(set-info :source |
MathSat group

|)
(set-info :category "random")
(set-info :status sat)
(declare-fun x0 () Real)
(declare-fun x1 () Real)
(declare-fun x2 () Real)
(declare-fun x3 () Real)
(declare-fun x4 () Real)
(declare-fun x5 () Real)
(declare-fun x6 () Real)
(declare-fun x7 () Real)
(declare-fun x8 () Real)
(declare-fun x9 () Real)
(declare-fun x10 () Real)
(declare-fun x11 () Real)
(declare-fun x12 () Real)
(declare-fun x13 () Real)
(declare-fun x14 () Real)
(declare-fun x15 () Real)
(declare-fun x16 () Real)
(declare-fun x17 () Real)
(declare-fun x18 () Real)
(declare-fun x19 () Real)
(declare-fun x20 () Real)
(declare-fun x21 () Real)
(declare-fun x22 () Real)
(declare-fun x23 () Real)
(declare-fun x24 () Real)
(declare-fun x25 () Real)
(declare-fun x26 () Real)
(declare-fun x27 () Real)
(declare-fun x28 () Real)
(declare-fun x29 () Real)
(declare-fun x30 () Real)
(declare-fun x31 () Real)
(declare-fun x32 () Real)
(declare-fun x33 () Real)
(declare-fun x34 () Real)
(declare-fun x35 () Real)
(declare-fun x36 () Real)
(declare-fun x37 () Real)
(declare-fun x38 () Real)
(declare-fun x39 () Real)
(declare-fun f0_1 (Real) Real)
(declare-fun f0_2 (Real Real) Real)
(declare-fun f0_3 (Real Real Real) Real)
(declare-fun f0_4 (Real Real Real Real) Real)
(declare-fun P0 () Bool)
(declare-fun P1 () Bool)
(declare-fun P2 () Bool)
(declare-fun P3 () Bool)
(declare-fun P4 () Bool)
(declare-fun P5 () Bool)
(declare-fun P6 () Bool)
(declare-fun P7 () Bool)
(declare-fun P8 () Bool)
(declare-fun P9 () Bool)
(declare-fun P10 () Bool)
(declare-fun P11 () Bool)
(declare-fun P12 () Bool)
(declare-fun P13 () Bool)
(declare-fun P14 () Bool)
(declare-fun P15 () Bool)
(declare-fun P16 () Bool)
(declare-fun P17 () Bool)
(declare-fun P18 () Bool)
(declare-fun P19 () Bool)
(declare-fun P20 () Bool)
(declare-fun P21 () Bool)
(declare-fun P22 () Bool)
(declare-fun P23 () Bool)
(declare-fun P24 () Bool)
(declare-fun P25 () Bool)
(declare-fun P26 () Bool)
(declare-fun P27 () Bool)
(declare-fun P28 () Bool)
(declare-fun P29 () Bool)
(declare-fun P30 () Bool)
(declare-fun P31 () Bool)
(declare-fun P32 () Bool)
(declare-fun P33 () Bool)
(declare-fun P34 () Bool)
(declare-fun P35 () Bool)
(declare-fun P36 () Bool)
(declare-fun P37 () Bool)
(declare-fun P38 () Bool)
(declare-fun P39 () Bool)
(assert (let ((?v_91 (<= (- (- (* 31 x18) (* 18 x25)) (* 24 x3)) 27)) (?v_7 (* 53 x27)) (?v_128 (< (- (- (* 32 x10) (* 56 x26)) (* 12 x39)) 58)) (?v_19 (< (- (+ (* 17 x0) (* 7 x7)) (* 13 x23)) 38)) (?v_9 (< (- (+ (* 54 x3) (* 35 x11)) (* 8 x14)) 47)) (?v_131 (= (+ (- (* 42 x29) (* 27 x12)) (* 43 x3)) 21)) (?v_24 (= (- (- (* 5 x2) (* 29 x23)) (* 14 x5)) 46)) (?v_34 (= (- (- (* 10 x10) (* 10 x20)) (* 2 x5)) 34)) (?v_45 (distinct x2 (f0_2 x10 x25))) (?v_177 (= (f0_2 x27 x30) (f0_1 x9))) (?v_56 (f0_1 x3))) (let ((?v_97 (distinct x8 ?v_56)) (?v_26 (= (f0_2 x11 x5) x19)) (?v_57 (distinct (f0_1 x38) x3)) (?v_155 (distinct (f0_2 x26 x9) ?v_56)) (?v_23 (= (f0_1 x2) x29)) (?v_42 (f0_1 x19))) (let ((?v_106 (distinct ?v_42 (f0_1 x16))) (?v_2 (= (f0_2 x29 x37) (f0_1 x6))) (?v_18 (f0_1 x21))) (let ((?v_38 (distinct ?v_18 x16)) (?v_73 (= x0 (f0_2 x20 x21))) (?v_29 (distinct (f0_2 x5 x37) ?v_18)) (?v_152 (= x27 (f0_2 x30 x19))) (?v_25 (= (f0_2 x32 x14) x3)) (?v_44 (= (f0_1 x7) ?v_42)) (?v_8 (distinct x5 (f0_2 x9 x1))) (?v_58 (= (f0_2 x6 x17) x37)) (?v_154 (= (f0_2 x24 x2) (f0_2 x26 x39))) (?v_119 (= (f0_2 x27 x10) x8)) (?v_13 (= x32 (f0_1 x34))) (?v_0 (distinct (f0_2 x26 x24) (f0_1 x25))) (?v_65 (distinct (f0_2 x10 x8) (f0_2 x0 x2))) (?v_27 (distinct x16 x24)) (?v_163 (= (f0_2 x6 x28) (f0_2 x38 x4))) (?v_176 (distinct (f0_2 x21 x13) (f0_2 x37 x3))) (?v_33 (distinct x15 (f0_2 x16 x35))) (?v_49 (= (f0_2 x1 x21) x39)) (?v_66 (= x13 ?v_42)) (?v_37 (f0_1 x4))) (let ((?v_162 (distinct (f0_1 x39) ?v_37)) (?v_89 (= (f0_2 x6 x22) (f0_2 x39 x37))) (?v_130 (= (f0_2 x7 x0) x34)) (?v_31 (= (f0_2 x30 x34) ?v_37)) (?v_158 (= x11 ?v_37)) (?v_164 (distinct (f0_1 x28) (f0_1 x32))) (?v_39 (distinct (f0_2 x2 x28) x16)) (?v_14 (= (f0_1 x37) x22)) (?v_67 (distinct x27 x32)) (?v_148 (distinct (f0_2 x6 x0) x21)) (?v_116 (= x36 (f0_1 x26))) (?v_137 (not ?v_33)) (?v_1 (not (distinct (f0_1 x11) x39))) (?v_61 (not P5)) (?v_80 (not P39)) (?v_76 (not P7)) (?v_28 (not ?v_34)) (?v_136 (not ?v_26)) (?v_114 (not ?v_2)) (?v_144 (not P8)) (?v_35 (not P22)) (?v_153 (not P33)) (?v_64 (not P37)) (?v_12 (not ?v_9)) (?v_11 (not ?v_91)) (?v_165 (not P32)) (?v_84 (not P21)) (?v_71 (not ?v_0)) (?v_81 (not P0)) (?v_77 (not P34)) (?v_60 (not P23)) (?v_87 (not ?v_38)) (?v_105 (not P10)) (?v_111 (not ?v_23))) (let ((?v_72 (not ?v_31)) (?v_68 (not ?v_25)) (?v_103 (not ?v_27)) (?v_78 (not P18)) (?v_143 (not P12)) (?v_85 (not ?v_148)) (?v_173 (not P29)) (?v_53 (not P11)) (?v_47 (not ?v_130)) (?v_171 (not ?v_97)) (?v_134 (not ?v_162)) (?v_69 (not ?v_39)) (?v_133 (not P15)) (?v_50 (not ?v_57)) (?v_112 (not P2)) (?v_183 (not ?v_19)) (?v_124 (not ?v_116)) (?v_62 (not ?v_66)) (?v_51 (not ?v_13)) (?v_98 (not ?v_176)) (?v_147 (not ?v_44)) (?v_48 (not ?v_45)) (?v_63 (not ?v_58)) (?v_135 (not P16)) (?v_125 (not P9)) (?v_156 (not P17)) (?v_161 (not P25)) (?v_195 (not ?v_67)) (?v_100 (not P14)) (?v_141 (not ?v_8)) (?v_74 (not ?v_73)) (?v_166 (not P30)) (?v_104 (not P20)) (?v_79 (not P3)) (?v_88 (not ?v_158)) (?v_118 (not P36)) (?v_127 (not P38)) (?v_107 (not P1)) (?v_188 (not ?v_65)) (?v_160 (not P27)) (?v_146 (not P13)) (?v_193 (not ?v_131)) (?v_157 (not ?v_119)) (?v_180 (not ?v_29)) (?v_129 (not P19)) (?v_187 (not P6)) (?v_149 (not P24)) (?v_167 (not ?v_49)) (?v_192 (not ?v_128)) (?v_181 (not ?v_177)) (?v_179 (not P31)) (?v_170 (not ?v_154)) (?v_169 (not ?v_155)) (?v_172 (not ?v_106)) (?v_168 (not P35)) (?v_199 (not P28)) (?v_186 (not P4)) (?v_185 (not P26)) (?v_200 (not ?v_163)) (?v_190 (not ?v_89)) (?v_203 (not ?v_152)) (?v_198 (not ?v_14)) (?v_93 (<= (+ (* 40 x11) (* 29 x1) (* 29 x20)) 16))) (let ((?v_121 (not ?v_93)) (?v_197 (= (+ (- 0 (* 26 x31)) (* 52 x20)) 51))) (let ((?v_174 (not ?v_197)) (?v_123 (< (+ (* 39 x37) (* 20 x19) (* 51 x39)) 7))) (let ((?v_151 (not ?v_123)) (?v_184 (< (+ (* 33 x13) (* 49 x8) (* 15 x37)) 23))) (let ((?v_189 (not ?v_184)) (?v_96 (< (- (- (* 3 x27) x27) (* 8 x4)) (- 47))) (?v_4 (< (+ (- (* (- 7) x5) (* 21 x27)) (* 16 x25)) (- 14)))) (let ((?v_6 (not ?v_4)) (?v_54 (<= (- (- (* (- 3) x21) (* 24 x21)) ?v_7) (- 48)))) (let ((?v_43 (not ?v_54)) (?v_102 (< (- (- (* (- 38) x14) (* 50 x7)) (* 3 x23)) (- 10)))) (let ((?v_17 (not ?v_102)) (?v_3 (* (- 11) x28))) (let ((?v_145 (<= (+ ?v_3 (* 11 x3)) 38))) (let ((?v_86 (not ?v_145)) (?v_20 (= (+ (* (- 21) x22) (* 17 x19) (* 53 x29)) (- 53))) (?v_55 (distinct (+ (- (* (- 26) x22) (* 43 x35)) x4) 57)) (?v_5 (<= (- (- (* 38 x31) (* 2 x38)) (* 12 x32)) (- 15))) (?v_32 (distinct (+ (- (* (- 32) x34) (* 30 x28)) (* 33 x28)) 28)) (?v_21 (distinct (+ ?v_3 (* 37 x12) (* 16 x5)) (- 52))) (?v_10 (< (+ (* 36 x25) (* 13 x5)) (- 4))) (?v_30 (< (- (- (* 3 x2) ?v_7) (* 49 x17)) (- 42)))) (let ((?v_138 (not ?v_30)) (?v_110 (<= (- (- (* 40 x14) (* 36 x16)) (* 26 x38)) (- 45)))) (let ((?v_99 (not ?v_110)) (?v_140 (< (- (- (* (- 40) x10) x23) (* 33 x31)) 43))) (let ((?v_15 (not ?v_140)) (?v_94 (not ?v_10)) (?v_70 (< (- (- (* (- 14) x24) (* 23 x37)) (* 5 x35)) 11)) (?v_82 (distinct (+ (* (- 55) x3) (* 21 x19) (* 43 x16)) 43))) (let ((?v_117 (not ?v_82)) (?v_59 (< (- (+ (* (- 51) x22) (* 26 x25)) (* 40 x27)) (- 39)))) (let ((?v_41 (not ?v_59)) (?v_83 (= (- (- (* 10 x21) (* 10 x35)) (* 17 x5)) (- 46)))) (let ((?v_16 (not ?v_83)) (?v_75 (not ?v_5)) (?v_113 (= (- (+ (* (- 11) x27) (* 25 x14)) (* 26 x7)) 40))) (let ((?v_46 (not ?v_113)) (?v_22 (not ?v_20)) (?v_150 (< (- (+ (* 33 x29) (* 28 x21)) (* 22 x3)) (- 54)))) (let ((?v_109 (not ?v_150)) (?v_52 (< (- (+ (* (- 34) x0) (* 16 x33)) (* 52 x7)) (- 16))) (?v_36 (< (+ (* (- 20) x24) (* 39 x33) (* 35 x36)) 22))) (let ((?v_95 (not ?v_36)) (?v_122 (<= (+ (* 2 x23) (* 47 x37)) (- 2)))) (let ((?v_40 (not ?v_122)) (?v_142 (< (+ (- (* 32 x32) (* 18 x29)) x1) (- 53))) (?v_90 (< (- (+ (* (- 25) x35) (* 39 x39)) (* 44 x29)) 15)) (?v_101 (<= (- (+ (* (- 17) x32) (* 4 x7)) (* 50 x4)) 44)) (?v_178 (not ?v_70)) (?v_92 (distinct (+ (- (* (- 1) x27) (* 25 x33)) (* 41 x2)) 38))) (let ((?v_191 (not ?v_92)) (?v_126 (not ?v_90)) (?v_202 (not ?v_96)) (?v_108 (not ?v_21)) (?v_115 (not ?v_101)) (?v_175 (not ?v_52)) (?v_120 (distinct (- (* (- 5) x23) (* 47 x16)) (- 8)))) (let ((?v_139 (not ?v_120)) (?v_132 (<= (- (+ (* (- 55) x8) (* 42 x8)) (* 3 x4)) 41)) (?v_182 (not ?v_32)) (?v_159 (not ?v_55))) (let ((?v_196 (or ?v_77 ?v_132)) (?v_201 (or ?v_179 ?v_115)) (?v_194 (not ?v_142))) (and (and (and (and (and (and (and (and (and (and (and (and (and (and (and (and (and (and (and (and (and (and (and (and (and (and (and (and (and (and (and (and (and (and (and (and (and (and (and (and (and (and (and (and (and (and (and (and (and (and (and (and (and (and (and (and (and (and (and (and (and (and (and (and (and (and (and (and (and (and (and (and (and (and (and (and (and (and (and (and (and (and (and (and (and (and (and (and (and (and (and (and (and (and (and (and (and (and (and (and (and (and (and (and (and (and (and (and (and (and (and (and (and (and (and (and (and (and (and (and (and (and (and (and (and (and (and (and (and (and (and (and (and (and (and (and (and (and (and (and (and (and (and (and (and (and (and (and (and (and (and (and (and (and (and (and (and (and (and (and (and (and (and (and (and (and (and (and (and (and (and (and (and (and (and (and (and (and (and (and (and (and (and (and (and (and (and (and (and (and (and (and (and (and (and (and (and (and (and (and (and (and (and (and (and (and (and (and (and (and (and (and (and (and (and (and (and (and (and (and (and (and (and (and (and (and (and (and (and (and (and (and (and (and (and (and (and (and (and (and (and (and (and (and (and (and (and (and (and (and (and (and (and (and (and (and (and (and (and (and (and (and (and (and (and (and (and (and (and (and (and (and (and (and (and (and (and (and (and (and (and (and (and (and (and (and (and (and (and (and (and (and (and (and (and (and (and (and (and (and (and (and (and (and (and (and (and (and (and (and (and (and (and (and (and (and (and (and (and (and (and (and (and (and (and (and (and (and (and (and (and (and (and (and (and (and (and (and (and (and (and (and (and (and (and (and (and (and (and (and (and (and (and (and (and (and (and (and (and (and (and (and (and (and (and (and (and (and (and (and (and (and (and (and (and (and (and (and (and (and (and (and (and (and (and (and (and (and (and (and (and (and (and (and (and (and (and (and (and (and (and (and (and (and (and (and (and (and (and (and (and (and (and (and (and (and (and (and (and (and (and (and (and (and (and (and (and (and (and (and (and (and (and (and (and (and (and (and (and (and (and (and (and (and (and (and (and (and (and (and (and (and (and (and (and (and (and (and (and (and (and (and (and (and (and (and (and (and (and (and (and (and (and (and (and (and (and (and (and (or (or ?v_96 ?v_13) ?v_24) (or (or ?v_137 ?v_121) P16)) (or (or P36 ?v_6) ?v_2)) (or (or ?v_43 P5) ?v_1)) (or (or ?v_25 ?v_61) ?v_17)) (or (or P6 ?v_0) ?v_86)) (or (or P36 ?v_39) ?v_80)) (or (or ?v_164 P21) ?v_19)) (or (or ?v_20 ?v_76) ?v_28)) (or (or ?v_0 ?v_136) ?v_55)) (or (or ?v_1 ?v_5) P39)) (or (or ?v_114 ?v_29) P35)) (or (or ?v_144 P38) P10)) (or (or ?v_9 ?v_32) ?v_21)) (or (or P2 ?v_35) ?v_8)) (or (or ?v_174 ?v_153) ?v_4)) (or (or ?v_5 ?v_6) ?v_10)) (or (or ?v_138 ?v_99) ?v_14)) (or (or ?v_49 ?v_64) ?v_8)) (or (or ?v_15 ?v_12) ?v_11)) (or (or ?v_94 P8) ?v_11)) (or (or ?v_165 ?v_70) ?v_12)) (or (or ?v_6 ?v_84) ?v_13)) (or (or ?v_117 ?v_14) ?v_41)) (or (or ?v_16 ?v_71) P35)) (or (or ?v_75 ?v_15) ?v_81)) (or (or ?v_16 ?v_77) ?v_27)) (or (or ?v_60 P6) ?v_17)) (or (or P19 ?v_87) ?v_46)) (or (or ?v_19 P28) ?v_105)) (or (or ?v_20 ?v_22) ?v_109)) (or (or P20 ?v_111) ?v_72)) (or (or P7 ?v_21) ?v_1)) (or (or ?v_22 P35) ?v_10)) (or (or ?v_45 ?v_23) ?v_24)) (or (or ?v_106 ?v_68) ?v_26)) (or (or ?v_103 ?v_78) ?v_28)) (or (or ?v_29 P6) ?v_143)) (or (or ?v_30 ?v_85) ?v_173)) (or (or P12 P13) ?v_24)) (or (or ?v_31 ?v_20) P28)) (or (or ?v_32 ?v_33) ?v_53)) (or (or P16 ?v_34) ?v_47)) (or (or ?v_35 ?v_171) ?v_151)) (or (or ?v_52 ?v_95) ?v_29)) (or (or ?v_65 ?v_36) ?v_134)) (or (or ?v_17 ?v_38) ?v_69)) (or (or ?v_133 ?v_40) ?v_31)) (or (or ?v_6 ?v_50) ?v_40)) (or (or ?v_112 ?v_23) ?v_183)) (or (or ?v_124 ?v_41) P33)) (or (or ?v_62 ?v_51) ?v_98)) (or (or ?v_147 ?v_26) ?v_41)) (or (or P29 ?v_43) P5)) (or (or ?v_142 ?v_44) ?v_48)) (or (or P39 ?v_63) ?v_46)) (or (or ?v_135 ?v_47) P11)) (or (or ?v_90 ?v_48) ?v_49)) (or (or ?v_50 P21) ?v_51)) (or (or ?v_43 ?v_52) ?v_125)) (or (or ?v_53 P31) ?v_54)) (or (or P7 ?v_15) ?v_28)) (or (or ?v_101 ?v_73) ?v_55)) (or (or ?v_155 ?v_57) ?v_20)) (or (or P25 ?v_156) ?v_8)) (or (or ?v_31 ?v_161) ?v_48)) (or (or ?v_58 P39) ?v_59)) (or (or ?v_19 P12) ?v_60)) (or (or ?v_50 ?v_61) ?v_62)) (or (or P30 ?v_195) ?v_63)) (or (or ?v_64 P21) P9)) (or (or ?v_65 ?v_66) P18)) (or (or ?v_67 ?v_39) P8)) (or (or ?v_68 ?v_69) ?v_70)) (or (or ?v_71 ?v_8) ?v_72)) (or (or P32 ?v_100) ?v_141)) (or (or ?v_74 ?v_152) ?v_64)) (or (or ?v_74 P15) ?v_89)) (or (or ?v_12 ?v_166) P18)) (or (or ?v_75 ?v_104) ?v_14)) (or (or ?v_79 ?v_8) ?v_76)) (or (or ?v_88 ?v_118) ?v_178)) (or (or ?v_77 ?v_78) P21)) (or (or ?v_79 ?v_80) ?v_58)) (or (or ?v_81 P1) P36)) (or (or P1 ?v_127) P2)) (or (or ?v_82 ?v_83) P4)) (or (or ?v_2 ?v_92) P10)) (or (or ?v_107 ?v_188) ?v_13)) (or (or ?v_84 P13) ?v_8)) (or (or ?v_12 ?v_35) ?v_85)) (or (or P13 P8) ?v_86)) (or (or ?v_76 ?v_39) ?v_12)) (or (or P16 ?v_87) ?v_160)) (or (or ?v_29 ?v_146) ?v_4)) (or (or ?v_128 ?v_76) ?v_12)) (or (or ?v_0 ?v_88) ?v_163)) (or (or ?v_89 P30) P0)) (or (or ?v_90 ?v_29) P36)) (or (or P9 ?v_71) ?v_84)) (or (or ?v_35 P39) ?v_57)) (or (or ?v_91 P19) P13)) (or (or ?v_191 ?v_93) ?v_50)) (or (or ?v_193 ?v_94) ?v_95)) (or (or ?v_0 ?v_72) ?v_28)) (or (or ?v_126 ?v_202) ?v_97)) (or (or P20 P3) P14)) (or (or ?v_98 ?v_108) ?v_99)) (or (or ?v_100 ?v_115) P28)) (or (or ?v_15 ?v_6) ?v_31)) (or (or ?v_102 ?v_90) ?v_93)) (or (or P21 ?v_54) P17)) (or (or ?v_33 ?v_94) ?v_30)) (or (or ?v_103 ?v_104) ?v_105)) (or (or ?v_106 ?v_71) ?v_31)) (or (or ?v_107 ?v_157) ?v_95)) (or (or P34 ?v_108) ?v_4)) (or (or ?v_109 P19) ?v_40)) (or (or P13 ?v_175) ?v_6)) (or (or P4 ?v_105) ?v_110)) (or (or ?v_23 ?v_111) ?v_100)) (or (or ?v_112 ?v_113) ?v_114)) (or (or ?v_6 ?v_108) ?v_115)) (or (or ?v_120 P32) ?v_180)) (or (or ?v_93 ?v_43) ?v_129)) (or (or ?v_112 ?v_97) ?v_63)) (or (or ?v_58 P25) ?v_116)) (or (or P1 ?v_117) ?v_95)) (or (or ?v_187 ?v_58) ?v_118)) (or (or P35 ?v_114) ?v_8)) (or (or ?v_119 P32) ?v_75)) (or (or ?v_68 ?v_52) ?v_139)) (or (or ?v_71 P4) ?v_121)) (or (or ?v_122 ?v_106) ?v_41)) (or (or ?v_100 ?v_123) ?v_149)) (or (or ?v_124 ?v_125) ?v_34)) (or (or ?v_103 ?v_82) P13)) (or (or ?v_119 P16) ?v_58)) (or (or ?v_15 ?v_34) P8)) (or (or ?v_126 ?v_127) ?v_108)) (or (or ?v_82 ?v_167) ?v_86)) (or (or ?v_192 ?v_58) ?v_91)) (or (or P35 P9) ?v_12)) (or (or ?v_129 ?v_61) ?v_94)) (or (or P37 ?v_132) ?v_130)) (or (or ?v_182 ?v_41) ?v_131)) (or (or ?v_86 ?v_63) ?v_159)) (or ?v_196 ?v_64)) (or (or ?v_133 P16) ?v_134)) (or (or ?v_154 ?v_135) ?v_83)) (or (or ?v_97 ?v_127) ?v_73)) (or (or ?v_59 ?v_86) ?v_98)) (or (or P23 ?v_136) ?v_9)) (or (or ?v_109 ?v_137) ?v_52)) (or (or ?v_117 ?v_21) ?v_6)) (or (or ?v_67 P9) P38)) (or (or ?v_138 ?v_139) ?v_181)) (or (or ?v_93 ?v_140) P10)) (or (or ?v_141 P26) ?v_19)) (or (or ?v_124 P33) ?v_47)) (or (or ?v_47 P14) ?v_97)) (or (or ?v_132 P11) ?v_20)) (or (or ?v_102 ?v_142) ?v_89)) (or (or ?v_143 ?v_144) ?v_141)) (or (or ?v_145 ?v_146) P15)) (or (or P24 ?v_179) ?v_45)) (or (or ?v_55 ?v_13) P2)) (or (or ?v_86 ?v_147) ?v_148)) (or (or ?v_149 ?v_150) ?v_24)) (or (or ?v_151 ?v_152) ?v_34)) (or (or ?v_139 ?v_69) ?v_189)) (or (or ?v_91 ?v_153) ?v_170)) (or (or ?v_153 ?v_169) ?v_41)) (or (or ?v_101 ?v_58) ?v_112)) (or (or P24 P11) ?v_156)) (or (or ?v_35 ?v_157) ?v_158)) (or (or ?v_172 ?v_12) ?v_129)) (or (or ?v_107 ?v_52) ?v_41)) (or (or ?v_9 P15) ?v_168)) (or (or ?v_1 P24) ?v_147)) (or (or (not ?v_24) ?v_108) ?v_159)) (or (or ?v_101 ?v_49) P1)) (or (or ?v_36 P14) P11)) (or (or ?v_102 ?v_69) P13)) (or (or ?v_153 ?v_15) ?v_71)) (or (or P29 ?v_109) ?v_15)) (or (or P39 ?v_199) ?v_142)) (or (or ?v_160 ?v_20) ?v_92)) (or (or ?v_161 ?v_63) ?v_41)) (or (or ?v_122 ?v_25) ?v_150)) (or (or ?v_162 ?v_146) ?v_31)) (or (or ?v_145 ?v_89) ?v_28)) (or (or ?v_96 ?v_57) ?v_11)) (or (or ?v_126 ?v_6) ?v_140)) (or (or ?v_105 ?v_100) ?v_87)) (or (or ?v_32 ?v_141) ?v_163)) (or (or ?v_164 ?v_25) ?v_159)) (or (or ?v_111 ?v_27) ?v_140)) (or (or ?v_62 ?v_70) ?v_50)) (or (or ?v_59 ?v_71) ?v_136)) (or (or ?v_159 ?v_48) ?v_134)) (or (or ?v_123 ?v_23) ?v_98)) (or (or ?v_118 ?v_23) ?v_63)) (or (or ?v_22 ?v_50) ?v_119)) (or (or ?v_133 ?v_9) P12)) (or (or ?v_63 ?v_96) ?v_165)) (or (or ?v_119 ?v_155) ?v_55)) (or (or ?v_166 ?v_167) ?v_109)) (or (or ?v_67 ?v_77) ?v_43)) (or (or ?v_149 ?v_62) ?v_166)) (or (or ?v_164 P5) P23)) (or (or P19 ?v_130) ?v_58)) (or (or ?v_23 P12) ?v_123)) (or (or ?v_96 ?v_168) ?v_54)) (or (or ?v_156 ?v_22) ?v_140)) (or (or P39 ?v_151) P4)) (or (or ?v_145 ?v_8) ?v_46)) (or (or P34 ?v_168) ?v_162)) (or (or ?v_169 ?v_145) ?v_27)) (or (or ?v_164 ?v_152) ?v_45)) (or (or ?v_170 P39) ?v_45)) (or (or ?v_27 ?v_121) P16)) (or (or ?v_163 ?v_43) ?v_75)) (or (or ?v_19 ?v_78) ?v_149)) (or (or ?v_89 ?v_31) ?v_102)) (or (or ?v_60 ?v_171) ?v_36)) (or (or P4 ?v_115) ?v_23)) (or (or P19 ?v_114) ?v_172)) (or (or ?v_29 ?v_173) ?v_174)) (or (or ?v_140 ?v_175) ?v_176)) (or (or ?v_113 ?v_85) ?v_51)) (or (or ?v_31 ?v_177) ?v_120)) (or (or ?v_173 ?v_62) ?v_92)) (or (or P37 ?v_164) ?v_102)) (or (or P33 ?v_156) ?v_186)) (or (or ?v_55 ?v_122) ?v_144)) (or (or ?v_110 ?v_159) ?v_26)) (or (or ?v_74 ?v_171) ?v_100)) (or (or ?v_152 ?v_90) ?v_52)) (or (or ?v_137 ?v_98) P30)) (or (or ?v_151 ?v_29) ?v_74)) (or (or ?v_171 ?v_178) ?v_45)) (or (or ?v_185 ?v_179) ?v_152)) (or (or ?v_100 ?v_180) ?v_102)) (or (or ?v_27 ?v_154) ?v_104)) (or (or P2 ?v_143) P13)) (or (or ?v_94 ?v_158) ?v_48)) (or (or ?v_38 ?v_161) ?v_181)) (or (or ?v_182 ?v_48) P37)) (or (or ?v_117 ?v_58) ?v_179)) (or (or ?v_110 ?v_166) P15)) (or (or ?v_51 ?v_161) ?v_6)) (or (or ?v_145 ?v_111) ?v_102)) (or (or ?v_180 ?v_71) P9)) (or (or ?v_85 ?v_44) ?v_14)) (or (or ?v_38 ?v_165) ?v_91)) (or (or ?v_22 ?v_34) ?v_118)) (or (or ?v_169 ?v_14) ?v_101)) (or (or ?v_64 ?v_2) ?v_164)) (or (or ?v_124 ?v_109) ?v_182)) (or (or ?v_173 ?v_177) ?v_4)) (or (or ?v_4 ?v_89) ?v_46)) (or (or ?v_38 P31) P14)) (or (or ?v_133 ?v_120) ?v_100)) (or (or ?v_12 ?v_2) ?v_129)) (or (or ?v_178 ?v_167) ?v_93)) (or (or ?v_31 ?v_32) ?v_153)) (or ?v_201 ?v_96)) (or (or P0 ?v_148) ?v_35)) (or (or ?v_143 ?v_66) ?v_128)) (or (or ?v_2 ?v_39) P21)) (or (or ?v_180 ?v_90) (not ?v_164))) (or (or ?v_35 ?v_129) ?v_95)) (or (or ?v_59 ?v_183) P27)) (or (or ?v_71 ?v_73) P22)) (or (or P36 ?v_159) ?v_184)) (or (or P11 ?v_29) ?v_169)) (or (or ?v_156 ?v_40) ?v_19)) (or (or ?v_88 ?v_58) ?v_53)) (or (or ?v_48 ?v_156) P19)) (or (or ?v_182 P2) ?v_170)) (or (or P17 ?v_2) P38)) (or (or ?v_127 ?v_30) ?v_114)) (or (or P25 ?v_14) ?v_48)) (or (or ?v_176 ?v_161) ?v_143)) (or (or ?v_75 ?v_129) P34)) (or (or ?v_81 ?v_68) ?v_31)) (or (or ?v_89 ?v_173) ?v_130)) (or (or ?v_194 ?v_71) ?v_164)) (or (or ?v_134 ?v_168) ?v_185)) (or (or P1 ?v_79) ?v_111)) (or (or ?v_80 P37) ?v_123)) (or (or ?v_114 ?v_21) ?v_74)) (or (or P15 ?v_176) ?v_181)) (or (or ?v_68 ?v_95) P1)) (or (or ?v_14 ?v_110) ?v_118)) (or (or ?v_142 ?v_15) ?v_180)) (or (or ?v_135 ?v_48) ?v_156)) (or (or P34 ?v_148) ?v_135)) (or (or ?v_200 ?v_186) ?v_142)) (or (or ?v_103 ?v_26) ?v_39)) (or (or ?v_13 ?v_95) P13)) (or (or ?v_190 ?v_88) ?v_69)) (or (or ?v_111 ?v_187) ?v_91)) (or (or ?v_188 ?v_44) ?v_189)) (or (or ?v_28 ?v_44) P36)) (or (or ?v_55 ?v_115) ?v_114)) (or (or ?v_190 ?v_61) ?v_52)) (or (or ?v_39 ?v_93) ?v_33)) (or (or ?v_39 ?v_144) P38)) (or (or ?v_14 ?v_30) P11)) (or (or P20 ?v_9) ?v_38)) (or (or ?v_176 ?v_137) ?v_83)) (or (or ?v_54 P7) P11)) (or (or ?v_36 P36) ?v_125)) (or (or ?v_99 ?v_13) ?v_52)) (or (or ?v_135 ?v_147) ?v_66)) (or (or ?v_185 ?v_172) ?v_190)) (or (or P27 ?v_86) ?v_98)) (or (or ?v_17 ?v_61) ?v_180)) (or (or ?v_17 ?v_116) ?v_151)) (or (or ?v_116 ?v_177) P33)) (or (or P27 ?v_180) ?v_85)) (or (or ?v_1 ?v_93) P24)) (or (or ?v_98 ?v_43) ?v_132)) (or (or P20 ?v_61) ?v_167)) (or (or ?v_148 ?v_191) ?v_22)) (or (or ?v_117 ?v_39) P20)) (or (or ?v_106 ?v_190) ?v_130)) (or (or ?v_149 ?v_14) P13)) (or (or ?v_48 ?v_69) ?v_141)) (or (or ?v_148 ?v_108) ?v_90)) (or (or ?v_184 ?v_34) ?v_17)) (or (or ?v_138 ?v_21) ?v_4)) (or (or ?v_94 ?v_32) P39)) (or (or P35 ?v_132) ?v_125)) (or (or ?v_60 ?v_179) P29)) (or (or ?v_175 P8) P20)) (or (or ?v_84 ?v_203) ?v_30)) (or (or ?v_188 ?v_125) ?v_192)) (or (or ?v_64 ?v_133) ?v_144)) (or (or ?v_32 ?v_94) ?v_44)) (or (or ?v_115 ?v_193) P30)) (or (or ?v_194 ?v_36) ?v_10)) (or (or P4 ?v_92) ?v_41)) (or (or ?v_82 ?v_71) ?v_145)) (or (or ?v_145 ?v_141) P0)) (or (or ?v_59 ?v_76) ?v_192)) (or (or ?v_84 ?v_123) ?v_98)) (or (or ?v_49 ?v_133) P37)) (or (or ?v_146 ?v_67) ?v_168)) (or (or ?v_92 ?v_133) ?v_98)) (or (or ?v_150 ?v_78) P11)) (or (or ?v_166 P28) ?v_30)) (or (or P0 ?v_86) ?v_123)) (or (or ?v_166 ?v_126) ?v_23)) (or (or ?v_98 ?v_184) ?v_80)) (or (or P31 ?v_104) ?v_64)) (or (or ?v_116 ?v_159) ?v_192)) (or (or ?v_73 P24) ?v_85)) (or (or ?v_5 P24) ?v_182)) (or (or ?v_89 ?v_161) ?v_187)) (or (or ?v_134 ?v_195) ?v_148)) (or (or ?v_189 ?v_124) ?v_32)) (or (or ?v_195 ?v_34) ?v_110)) (or (or ?v_164 ?v_1) ?v_52)) (or (or ?v_151 ?v_150) ?v_174)) (or (or ?v_79 ?v_146) P28)) (or (or ?v_110 ?v_80) ?v_20)) (or (or ?v_100 P3) ?v_48)) (or (or ?v_117 ?v_131) ?v_126)) (or (or ?v_108 P37) P16)) (or (or ?v_106 P25) ?v_110)) (or (or ?v_77 ?v_96) ?v_24)) (or (or ?v_163 ?v_145) ?v_87)) (or (or ?v_149 ?v_168) ?v_79)) (or (or ?v_156 ?v_99) ?v_161)) (or (or ?v_117 ?v_22) ?v_106)) (or (or ?v_8 P12) ?v_177)) (or ?v_196 P18)) (or (or ?v_180 ?v_44) ?v_17)) (or (or ?v_106 ?v_96) ?v_6)) (or (or ?v_78 ?v_161) ?v_166)) (or (or ?v_116 ?v_166) ?v_115)) (or (or ?v_43 ?v_166) ?v_168)) (or (or P1 P31) ?v_94)) (or (or ?v_72 ?v_132) ?v_144)) (or (or ?v_197 ?v_179) ?v_33)) (or (or ?v_139 ?v_146) ?v_179)) (or (or P4 ?v_112) ?v_5)) (or (or ?v_181 ?v_130) ?v_65)) (or (or ?v_128 P28) P15)) (or (or ?v_195 ?v_115) ?v_89)) (or (or ?v_123 ?v_105) ?v_197)) (or (or ?v_198 ?v_32) ?v_108)) (or (or ?v_38 P12) P23)) (or (or ?v_106 P23) P28)) (or (or ?v_136 ?v_59) ?v_28)) (or (or ?v_115 ?v_72) ?v_113)) (or (or ?v_46 ?v_63) ?v_146)) (or (or ?v_10 ?v_150) P14)) (or (or ?v_156 ?v_133) ?v_192)) (or (or P17 ?v_148) ?v_190)) (or (or ?v_1 ?v_78) ?v_143)) (or (or ?v_92 ?v_105) ?v_198)) (or (or ?v_61 P33) ?v_111)) (or (or ?v_127 P21) ?v_41)) (or (or ?v_105 ?v_199) ?v_179)) (or (or P3 ?v_97) ?v_182)) (or (or ?v_114 P32) ?v_86)) (or (or ?v_75 P26) ?v_123)) (or (or ?v_159 ?v_70) ?v_48)) (or (or ?v_172 ?v_136) ?v_155)) (or (or ?v_23 ?v_123) ?v_55)) (or (or ?v_126 ?v_84) ?v_145)) (or (or ?v_71 ?v_29) P1)) (or (or ?v_83 ?v_10) ?v_131)) (or (or ?v_9 ?v_70) ?v_115)) (or (or ?v_11 P36) ?v_164)) (or (or ?v_200 ?v_151) P38)) (or (or P13 ?v_77) ?v_197)) (or ?v_201 ?v_20)) (or (or ?v_103 ?v_11) ?v_93)) (or (or ?v_144 ?v_108) ?v_73)) (or (or ?v_146 ?v_74) ?v_91)) (or (or ?v_30 ?v_120) ?v_72)) (or (or ?v_77 ?v_131) ?v_53)) (or (or ?v_188 P1) ?v_177)) (or (or ?v_161 ?v_150) P23)) (or (or ?v_171 ?v_26) ?v_138)) (or (or P26 ?v_30) P9)) (or (or ?v_87 ?v_27) ?v_89)) (or (or ?v_198 P32) ?v_197)) (or (or ?v_126 P30) ?v_26)) (or (or ?v_78 ?v_202) ?v_120)) (or (or ?v_35 ?v_20) ?v_164)) (or (or P5 ?v_76) ?v_58)) (or (or ?v_170 ?v_194) ?v_26)) (or (or ?v_17 ?v_120) P3)) (or (or ?v_45 ?v_173) ?v_19)) (or (or P28 P22) ?v_83)) (or (or P28 ?v_77) P5)) (or (or ?v_163 ?v_167) P5)) (or (or ?v_12 ?v_101) P28)) (or (or ?v_103 ?v_109) ?v_74)) (or (or ?v_192 ?v_38) P6)) (or (or ?v_155 ?v_176) ?v_112)) (or (or ?v_112 ?v_195) ?v_105)) (or (or ?v_48 P1) ?v_43)) (or (or ?v_29 ?v_27) ?v_177)) (or (or ?v_137 ?v_147) P6)) (or (or ?v_120 ?v_95) ?v_107)) (or (or ?v_6 ?v_175) ?v_78)) (or (or ?v_73 ?v_141) ?v_16)) (or (or ?v_6 ?v_162) ?v_180)) (or (or ?v_156 ?v_155) ?v_26)) (or (or ?v_64 ?v_45) ?v_46)) (or (or ?v_89 ?v_160) P31)) (or (or ?v_169 ?v_179) ?v_152)) (or (or ?v_129 ?v_12) P38)) (or (or ?v_114 ?v_38) P39)) (or (or ?v_150 ?v_61) ?v_2)) (or (or ?v_139 ?v_116) ?v_202)) (or (or ?v_32 ?v_49) ?v_95)) (or (or ?v_184 ?v_118) ?v_107)) (or (or ?v_2 ?v_122) P11)) (or (or ?v_198 ?v_34) ?v_80)) (or (or ?v_33 ?v_145) ?v_133)) (or (or P9 ?v_5) ?v_2)) (or (or ?v_65 ?v_174) ?v_138)) (or (or ?v_203 P17) ?v_127)) (or (or ?v_176 P3) ?v_35)) (or (or ?v_16 ?v_25) ?v_135)) (or (or ?v_176 ?v_174) ?v_90)) (or (or P23 ?v_135) ?v_40)) (or (or P13 ?v_108) ?v_94)) (or (or ?v_154 ?v_200) ?v_156)) (or (or ?v_16 ?v_93) ?v_76)) (or (or ?v_82 P19) ?v_72)) (or (or ?v_169 ?v_170) P5)))))))))))))))))))))))))))))))
(check-sat)
(exit)
